c --- [ banner ] -------------------------------------------------------------
c 
c CaDiCaL Radically Simplified CDCL SAT Solver
c Copyright (c) 2016-2021 A. Biere, M. Fleury, N. Froleyks
c 
c Version 1.5.2 a5f15211db36c3956764e18194dd5bd63bf3b5e6
c g++ (GCC) 9.3.0 -Wall -Wextra -O3 -DNDEBUG
c Fri Oct 21 01:27:37 EDT 2022 Linux gra-login3 3.10.0-1160.66.1.el7.x86_64 x86_64
c 
c --- [ limit ] --------------------------------------------------------------
c 
c setting conflict limit to 200000 conflicts (due to '200000')
c 
c --- [ parsing input ] ------------------------------------------------------
c 
c reading DIMACS file from '33.cubes1897.adj'
c opening file to read '33.cubes1897.adj'
c found 'p cnf 6160 1595469' header
c parsed 1595469 clauses in 19.63 seconds process time
c closing file '33.cubes1897.adj'
c after reading 1457566734 bytes 1390.0 MB
c 
c --- [ options ] ------------------------------------------------------------
c 
c all options are set to their default value
c 
c --- [ solving ] ------------------------------------------------------------
c 
c time measured in process time since initialization
c 
c  seconds    reductions  redundant   irredundant
c          MB     restarts       trail       variables
c            level   conflicts       glue         remaining
c 
c * 19.63 1379  0 0   0    0    0  0% 0 1595422 2416 39%
c { 21.08 1437  0 0   0    0    0  0% 0 1595422 2416 39%
c i 22.07 1468 1243 0   0    9    7 42% 4 1595422 2398 39%
c i 23.28 1489 539 0   4   47   39 29% 4 1595422 2366 38%
c i 24.94 1510 267 0  17  101   82 29% 17 1595422 2365 38%
c i 25.96 1515 207 0  28  150  125 29% 22 1595422 2364 38%
c i 26.43 1516 196 0  32  169  142 29% 27 1595422 2354 38%
c i 26.52 1516 194 0  34  173  145 29% 27 1595422 2351 38%
c i 26.58 1517 191 0  35  177  148 29% 26 1595422 2350 38%
c i 27.10 1519 179 0  41  200  169 29% 28 1595422 2349 38%
c i 27.23 1519 174 0  44  209  175 29% 29 1595422 2348 38%
c i 27.24 1519 173 0  45  211  176 29% 29 1595422 2347 38%
c i 27.25 1519 172 0  46  213  177 29% 29 1595422 2346 38%
c i 27.31 1520 170 0  47  217  178 29% 30 1595422 2345 38%
c i 27.62 1520 164 0  51  235  194 29% 31 1595422 2344 38%
c i 28.71 1522 150 0  65  294  251 28% 32 1595422 2343 38%
c - 33.03 1457 150 1  67  301  258 28% 33 327645 2343 38%
c i 33.27 1425 148 1  69  311  267 28% 34 327645 2342 38%
c i 33.27 1425 147 1  69  312  267 28% 34 327645 2341 38%
c i 33.64 1387 143 1  75  333  284 28% 34 327645 2338 38%
c 
c  seconds     reductions  redundant   irredundant
c          MB      restarts       trail       variables
c             level   conflicts       glue         remaining
c 
c i 33.79 1387 141 1  76  342  292 28% 33 327645 2337 38%
c i 33.79 1387 141 1  76  344  293 28% 33 327645 2336 38%
c i 33.80 1387 140 1  76  347  295 28% 33 327645 2335 38%
c i 33.87 1387 137 1  76  355  301 28% 33 327645 2334 38%
c i 33.91 1387 137 1  76  359  303 28% 32 327645 2333 38%
c i 33.96 1387 135 1  76  365  307 28% 32 327645 2332 38%
c i 34.11 1387 133 1  76  383  324 28% 32 327645 2331 38%
c i 34.62 1388 121 1  82  447  383 28% 33 327645 2330 38%
c i 35.29 1388 121 1  94  492  421 29% 36 327645 2329 38%
c i 35.33 1388 120 1  96  497  425 29% 36 327645 2328 38%
c i 35.77 1388 113 1 104  562  469 28% 35 327645 2327 38%
c i 35.86 1388 112 1 104  574  479 28% 35 327645 2326 38%
c i 35.89 1388 111 1 104  579  483 28% 35 327645 2325 38%
c i 36.09 1388 106 1 104  619  517 28% 34 327645 2324 38%
c i 36.21 1388 106 1 104  634  531 29% 34 327645 2323 38%
c i 37.32 1389 105 1 125  722  606 29% 37 327645 2322 38%
c i 37.67 1389 106 1 132  751  627 29% 39 327645 2321 38%
c i 38.27 1390 102 1 138  805  671 29% 37 327645 2320 38%
c i 38.32 1390 101 1 138  813  677 29% 37 327645 2319 38%
c i 38.37 1390 100 1 138  829  689 29% 37 327645 2318 38%
c 
c  seconds     reductions  redundant   irredundant
c          MB      restarts       trail       variables
c             level   conflicts       glue         remaining
c 
c i 38.37 1390 100 1 138  831  689 29% 37 327645 2317 38%
c i 38.50 1390 97 1 138  866  716 29% 37 327645 2316 38%
c i 38.62 1390 94 1 138  900  731 29% 36 327645 2315 38%
c i 38.66 1390 95 1 138  913  742 29% 37 327645 2314 38%
c i 39.25 1390 96 1 149  970  793 29% 38 327645 2313 38%
c } 39.57 1390 94 1 152 1003  813 29% 37 327645 2313 38%
c [ 39.57 1390  0 1 152 1003  813  0% 0 327645 2313 38%
c O 39.57 1390  2 1 152 1004  814 13% 2 327645 2313 38%
c i 39.85 1390 16 1 152 1027  836 30% 12 327645 2312 38%
c i 40.08 1390 20 1 152 1131  921 32% 15 327645 2311 38%
c i 40.08 1390 19 1 152 1134  922 32% 15 327645 2310 38%
c i 40.14 1390 19 1 152 1188  956 32% 15 327645 2309 37%
c i 40.15 1390 19 1 152 1196  961 32% 16 327645 2308 37%
c i 40.16 1390 19 1 152 1197  961 32% 15 327645 2307 37%
c - 40.79 1511 19 2 152 1212  853 32% 16 254638 2307 37%
c i 41.20 1511 21 2 152 1390  989 32% 18 254638 2306 37%
c i 41.23 1511 21 2 152 1440 1028 32% 18 254638 2305 37%
c i 41.29 1511 22 2 152 1521 1091 32% 19 254638 2304 37%
c i 41.33 1511 23 2 152 1615 1179 32% 20 254638 2303 37%
c i 41.34 1511 23 2 152 1639 1200 32% 20 254638 2302 37%
c 
c  seconds    reductions  redundant   irredundant
c          MB     restarts       trail       variables
c            level   conflicts       glue         remaining
c 
c i 41.50 1511 25 2 152 2028 1519 33% 23 254638 2301 37%
c - 42.02 1510 26 3 153 2477 1430 33% 23 254620 2301 37%
c ] 42.52 1471 26 3 153 3003 1768 56% 23 254620 2301 37%
c { 42.52 1471 94 3 153 3003 1768 77% 37 254620 2301 37%
c F 42.58 1471 93 3 153 3011 1771 76% 37 254620 2301 37%
c i 42.78 1471 92 3 153 3029 1788 76% 36 254620 2300 37%
c i 42.82 1471 90 3 153 3048 1801 76% 36 254620 2299 37%
c i 42.84 1471 90 3 153 3051 1802 75% 36 254620 2298 37%
c i 43.11 1471 87 3 161 3176 1906 73% 35 254620 2297 37%
c i 43.35 1471 85 3 167 3236 1953 72% 36 254620 2296 37%
c i 43.38 1471 84 3 167 3259 1973 71% 35 254620 2295 37%
c i 43.40 1471 84 3 167 3260 1973 71% 35 254620 2294 37%
c i 43.61 1471 83 3 175 3335 2039 70% 36 254620 2293 37%
c i 43.70 1471 76 3 175 3579 2226 67% 34 254620 2292 37%
c i 43.98 1471 74 3 180 3775 2399 65% 34 254620 2291 37%
c i 44.41 1471 75 3 187 3853 2447 63% 34 254620 2290 37%
c i 44.64 1471 74 3 192 3909 2499 63% 34 254620 2289 37%
c i 44.86 1471 75 3 197 3943 2530 63% 34 254620 2288 37%
c i 45.83 1471 73 3 214 4121 2674 61% 34 254620 2287 37%
c - 46.29 1352 73 4 216 4164 1877 61% 34 254578 2287 37%
c 
c  seconds    reductions  redundant   irredundant
c          MB     restarts       trail       variables
c            level   conflicts       glue         remaining
c 
c i 47.37 1352 71 4 236 4443 2111 60% 34 254578 2286 37%
c i 47.47 1352 71 4 239 4486 2147 60% 34 254578 2285 37%
c i 47.53 1352 70 4 242 4555 2199 59% 34 254578 2284 37%
c i 48.46 1352 70 4 275 4767 2384 58% 35 254578 2283 37%
c i 48.67 1352 70 4 285 4810 2420 58% 35 254578 2282 37%
c d 50.66 1352 72 4 332 5000 2591 57% 36 244830 2271 37%
c p 58.40 1352 72 4 332 5000 6719 57% 36 244830 2219 36%
c d 58.86 1352 72 4 332 5000 6718 57% 36 244673 2218 36%
c # 62.78 1352 69 4 419 6013 7591 55% 36 244673 2218 36%
c - 63.30 1352 66 5 419 6274 2908 55% 35 244673 2218 36%
c } 63.93 1352 61 5 423 7003 3510 54% 33 244673 2218 36%
c [ 63.93 1352 26 5 423 7003 3510 56% 23 244673 2218 36%
c - 65.15 1353 27 6 424 8773 3252 52% 24 244673 2218 36%
c I 65.72 1353 28 6 425 10018 4067 52% 24 244673 2218 36%
c - 68.49 1353 38 7 427 11690 3781 50% 31 244673 2218 36%
c ] 72.45 1353 42 7 428 15004 6198 49% 34 244673 2218 36%
c { 72.45 1353 61 7 428 15004 6198 54% 33 244673 2218 36%
c p 74.65 1353 61 7 428 15004 10517 54% 33 244673 2218 36%
c B 74.97 1353 61 7 428 15019 10528 54% 33 244672 2217 36%
c - 75.15 1354 61 8 428 15023 4386 54% 33 244672 2217 36%
c 
c  seconds    reductions   redundant   irredundant
c          MB     restarts        trail       variables
c            level    conflicts       glue         remaining
c 
c s 78.95 1354 48 8 446 18736 7167 51% 28 243087 2217 36%
c v 83.86 1354 48 8 446 18736 7167 51% 28 243068 2217 36%
c t 83.98 1354 48 8 446 18736 7157 51% 28 243060 2217 36%
c e 85.06 1355 48 8 446 18736 6341 51% 28 240130 803 13%
c s 85.15 1355 48 8 446 18736 6341 51% 28 238932 803 13%
c - 86.70 1355 48 9 452 18776 4494 77% 28 238932 803 13%
c W 88.90 1355 44 9 488 21020 6100 77% 27 238932 803 13%
c - 91.15 1355 42 10 557 22911 5315 78% 27 238932 803 13%
c - 101.65 1355 40 11 803 27459 6113 78% 26 238932 803 13%
c F 102.96 1355 40 11 840 28022 6520 78% 26 238932 803 13%
c p 107.10 1355 39 11 844 30004 10174 77% 25 238932 803 13%
c } 107.99 1355 38 11 844 31005 10836 77% 25 238932 803 13%
c [ 107.99 1355 42 11 844 31005 10836 141% 34 238932 803 13%
c - 108.76 1355 40 12 844 32421 6779 131% 32 238932 803 13%
c B 110.43 1355 35 12 847 36025 8927 116% 29 238932 803 13%
c - 111.29 1355 34 13 848 37796 7158 111% 28 238932 803 13%
c - 113.78 1355 33 14 851 43588 7883 102% 27 238932 803 13%
c W 115.83 1355 33 14 851 45026 8848 100% 27 238932 803 13%
c - 118.88 1355 33 15 852 49790 8448 95% 27 238932 803 13%
c p 120.60 1355 33 15 852 50007 10962 95% 28 238932 803 13%
c 
c  seconds     reductions     redundant   irredundant
c           MB      restarts         trail       variables
c             level     conflicts        glue        remaining
c 
c O 124.32 1355 33 15 853 55027 14624 92% 28 238932 803 13%
c ] 124.62 1355 33 15 853 55305 14783 92% 28 238932 803 13%
c 1 124.62 1355 33 15 853 55305 14783 92% 28 238932 803 13%
c 
c --- [ writing output ] -----------------------------------------------------
c 
c writing simplified CNF to DIMACS file 'simp/33.cubes1897.adj.simp1'
c * 124.62 1355 33 15 853 55305 14783 92% 28 238932 803 13%
c opening file to write 'simp/33.cubes1897.adj.simp1'
c writing 'p cnf 6160 238932' header
c closing file 'simp/33.cubes1897.adj.simp1'
c after writing 125299747 bytes 119.5 MB
c wrote 238932 clauses in 0.89 seconds process time
c 
c --- [ writing extension ] --------------------------------------------------
c 
c writing extension stack to 'simp/33.cubes1897.adj.ext1'
c opening file to write 'simp/33.cubes1897.adj.ext1'
c closing file 'simp/33.cubes1897.adj.ext1'
c after writing 92988 bytes 0.1 MB
c wrote 4083 witnesses in 0.00 seconds process time
c 
c --- [ result ] -------------------------------------------------------------
c 
s SATISFIABLE
c 
c --- [ run-time profiling ] -------------------------------------------------
c 
c process time taken by individual solving procedures
c (percentage relative to process time for solving)
c 
c        82.94   78.99% search
c        54.80   52.20% unstable
c        25.22   24.02% stable
c        22.05   21.00% simplify
c        19.63   18.70% parse
c        13.51   12.87% probe
c         5.00    4.76% vivify
c         2.06    1.96% elim
c         1.47    1.40% walk
c         1.45    1.38% lucky
c         0.18    0.17% subsume
c         0.15    0.14% ternary
c   =================================
c       104.99   83.65% solve
c 
c last line shows process time for solving
c (percentage relative to total process time)
c 
c --- [ statistics ] ---------------------------------------------------------
c 
c chronological:             10383        18.77 %  of conflicts
c conflicts:                 55305       526.77    per second
c decisions:                134443      1280.54    per second
c eliminated:                 1414        22.95 %  of all variables
c fixed:                       786        12.76 %  of all variables
c learned:                   54099        97.82 %  per conflict
c learned_lits:           11110528       100.00 %  learned literals
c minimized:                     0         0.00 %  learned literals
c shrunken:                5941957        53.48 %  learned literals
c minishrunken:            1185431        10.67 %  learned literals
c propagations:            4636734         0.04 M  per second
c reduced:                   26796        48.45 %  per conflict
c rephased:                     10      5530.50    interval
c restarts:                    853        64.84    interval
c stabilizing:                   3        62.02 %  of conflicts
c substituted:                  13         0.21 %  of all variables
c subsumed:                  16796         0.49 %  of all clauses
c strengthened:               2054         0.06 %  of all clauses
c ternary:                    3482         0.67 %  of resolved
c vivified:                     30         0.00 %  of all clauses
c walked:                        2     27652.50    interval
c weakened:                   3297         3.09    average size
c 
c seconds are measured in process time for solving
c 
c --- [ resources ] ----------------------------------------------------------
c 
c total process time since initialization:       125.51    seconds
c total real time since initialization:          126.80    seconds
c maximum resident set size of process:         1630.96    MB
c 
c --- [ shutting down ] ------------------------------------------------------
c 
c exit 10
WARNING! DIMACS header mismatch: wrong number of variables.
============================[ Problem Statistics ]=============================
|                                                                             |
|  Number of variables:          3023                                         |
|  Number of clauses:          238934                                         |
|  Parse time:                   1.66 s                                       |
|  Simplification time:          0.03 s                                       |
|                                                                             |
============================[ Search Statistics ]====================================================
| Conflicts |          ORIGINAL         |          LEARNT          | Num Sols |      SUBGRAPHS      |
|           |    Vars  Clauses Literals |    Limit  Clauses Lit/Cl |          | Canonical Noncanon. |
=====================================================================================================
|       249 |    2931   239083 26652749 |     2000      249     27 |        0 |        85       149 |
|       668 |    2931   239352 26655563 |     2000      668     36 |        0 |       123       418 |
|       898 |    2931   239357 26655648 |     2000      898     66 |        0 |       126       423 |
|      1235 |    2931   239357 26655648 |     2000     1235     80 |        0 |       126       423 |
|      1842 |    2931   239458 26656869 |     2000     1842     85 |        0 |       140       524 |
|      2896 |    2931   239753 26660622 |     3601     1897     49 |        0 |       211       819 |
|      4235 |    2931   239953 26662955 |     3601     3236     73 |        0 |       299      1019 |
|      6333 |    2931   240343 26669171 |     5006     3539     45 |        0 |       376      1409 |
|      8968 |    2931   240416 26670505 |     6308     3676     44 |        0 |       395      1482 |
|     13011 |    2931   240615 26674260 |     7557     4568     39 |        0 |       468      1681 |
|     18855 |    2931   240693 26675403 |     8785     6640     52 |        0 |       505      1759 |
|     27878 |    2931   241067 26680180 |    11207     6285     42 |        0 |       547      2133 |
|     41237 |    2931   241452 26686913 |    13610     7847     44 |        0 |       646      2518 |
|     61766 |    2916   242520 26700297 |    16010    14175     62 |        0 |       844      3586 |
|     91901 |    2915   243463 26711700 |    19612    18513     55 |        0 |      1083      4529 |
|    136351 |    2915   244124 26720478 |    24412    20163     54 |        0 |      1296      5190 |
|    202380 |    2915   244469 26725457 |    30414    19194     44 |        0 |      1389      5535 |
|    301661 |    2915   245224 26738487 |    37611    18272     23 |        0 |      1569      6290 |
|    450734 |    2914   246508 26756728 |    46011    23145     29 |        0 |      1863      7574 |
=====================================================================================================
Number of solutions   : 1
Canonical subgraphs   : 2131           (9 /sec)
          order  3    : 1              (142857 /sec)
          order  4    : 1              (500000 /sec)
          order  5    : 1              (200000 /sec)
          order  6    : 1              (55556 /sec)
          order  7    : 1              (8000 /sec)
          order  8    : 2              (1350 /sec)
          order  9    : 6              (314 /sec)
          order 10    : 14             (65 /sec)
          order 11    : 57             (19 /sec)
          order 12    : 234            (18 /sec)
          order 13    : 148            (28 /sec)
          order 14    : 58             (14 /sec)
          order 15    : 173            (12 /sec)
          order 16    : 855            (8 /sec)
          order 17    : 527            (6 /sec)
          order 18    : 34             (5 /sec)
          order 19    : 11             (4 /sec)
          order 20    : 3              (3 /sec)
          order 21    : 3              (3 /sec)
          order 22    : 1              (0 /sec)
Noncanonical subgraphs: 8819           (384 /sec)
          order  3    : 0              (-nan /sec)
          order  4    : 0              (-nan /sec)
          order  5    : 0              (-nan /sec)
          order  6    : 0              (-nan /sec)
          order  7    : 0              (-nan /sec)
          order  8    : 0              (-nan /sec)
          order  9    : 0              (-nan /sec)
          order 10    : 0              (-nan /sec)
          order 11    : 0              (-nan /sec)
          order 12    : 0              (-nan /sec)
          order 13    : 2220           (5446 /sec)
          order 14    : 717            (5050 /sec)
          order 15    : 415            (4413 /sec)
          order 16    : 4038           (505 /sec)
          order 17    : 924            (269 /sec)
          order 18    : 481            (50 /sec)
          order 19    : 21             (32 /sec)
          order 20    : 1              (32 /sec)
          order 21    : 0              (-nan /sec)
Canonicity checking   : 246.327 s
Noncanonicity checking: 22.9617 s
Total canonicity time : 269.289 s
database reductions   : 41
restarts              : 1274
conflicts             : 591289         (1159 /sec)
decisions             : 802950         (0.00 % random) (1574 /sec)
propagations          : 22819175       (44729 /sec)
conflict literals     : 57461875       (57.25 % deleted)
actual reward         : 0.310431
Memory used           : 366.00 MB
CPU time              : 510.162 s

UNSATISFIABLE
